% seed = 2445623

mint = 52;
% maxt = 197;

nActs = 42;
dur = [0,1,6,4,4,5,6,2,6,4,4,2,7,7,5,10,6,1,5,6,6,7,5,8,2,3,7,8,1,2,6,6,1,5,3,8,3,10,3,7,5,0];

nSkills = 4;
sreq = [| 0,0,0,0,
	| 0,6,6,0,
	| 6,7,0,0,
	| 0,6,0,3,
	| 4,4,3,4,
	| 6,7,0,0,
	| 1,3,2,2,
	| 0,6,0,7,
	| 4,2,3,2,
	| 2,2,3,5,
	| 4,0,2,4,
	| 0,4,4,0,
	| 4,0,2,3,
	| 6,3,3,0,
	| 5,3,3,2,
	| 3,3,5,3,
	| 1,1,5,4,
	| 5,3,3,0,
	| 5,6,4,2,
	| 3,3,2,5,
	| 2,2,5,3,
	| 6,0,4,6,
	| 3,0,6,0,
	| 0,7,0,6,
	| 5,3,4,2,
	| 3,0,0,6,
	| 6,4,2,3,
	| 0,6,5,0,
	| 4,0,2,0,
	| 0,5,4,5,
	| 6,0,3,0,
	| 5,0,3,5,
	| 1,4,3,2,
	| 5,3,0,5,
	| 0,0,5,5,
	| 0,0,4,7,
	| 6,5,2,4,
	| 3,3,3,6,
	| 7,0,7,0,
	| 3,0,2,5,
	| 6,0,3,6,
	| 0,0,0,0, |];

nResources = 38;
mastery = [| true,true,true,false,
	| true,false,true,true,
	| true,true,true,false,
	| true,false,true,false,
	| true,true,true,false,
	| true,true,true,false,
	| true,true,false,true,
	| true,true,false,false,
	| true,true,false,false,
	| true,true,false,false,
	| false,true,true,false,
	| false,false,true,false,
	| true,false,false,false,
	| false,false,true,false,
	| false,true,true,false,
	| true,true,false,true,
	| false,false,false,true,
	| false,true,true,true,
	| true,false,true,true,
	| true,true,false,true,
	| true,false,false,true,
	| true,true,false,false,
	| false,false,false,true,
	| false,false,false,true,
	| false,true,false,true,
	| false,false,true,false,
	| true,true,false,false,
	| false,true,false,true,
	| true,true,false,true,
	| false,true,false,true,
	| true,false,false,true,
	| true,true,true,false,
	| false,true,true,false,
	| false,true,true,true,
	| false,true,true,true,
	| false,false,false,true,
	| true,false,true,true,
	| true,false,false,true, |];

nPrecs = 73;
pred = [1,1,1,2,2,2,3,3,3,4,4,4,5,6,6,7,7,8,9,9,9,10,11,12,12,13,14,14,15,15,15,16,16,17,18,18,18,19,19,20,21,21,22,22,22,23,23,23,24,24,24,25,26,26,27,28,29,29,29,30,31,32,33,33,34,35,35,36,37,38,39,40,41];
succ = [2,3,4,28,21,6,33,17,5,9,10,13,18,7,16,15,8,14,12,37,30,11,24,17,23,26,17,19,19,20,23,22,24,39,28,22,23,25,22,41,27,29,35,31,32,26,27,32,25,34,30,41,39,40,35,30,34,31,32,40,38,36,34,36,40,36,38,41,38,39,42,42,42];

nUnrels = 469;
unpred = [2,2,2,2,2,2,2,2,2,2,2,3,3,3,3,3,3,3,3,3,3,3,3,3,3,3,3,3,3,3,4,4,4,4,4,4,4,4,4,4,4,4,4,4,4,4,5,5,5,5,5,5,5,5,5,5,5,5,5,5,5,5,5,5,5,5,5,6,6,6,6,6,6,6,6,6,6,6,7,7,7,7,7,7,7,7,7,7,7,7,7,7,7,8,8,8,8,8,8,8,8,8,8,8,8,8,8,8,8,8,8,8,8,8,9,9,9,9,9,9,9,9,9,9,9,9,9,9,9,9,9,9,10,10,10,10,10,10,10,10,10,10,10,10,10,10,10,10,10,10,10,10,10,10,10,10,11,11,11,11,11,11,11,11,11,11,11,11,11,11,11,11,11,11,11,11,11,11,11,11,12,12,12,12,12,12,12,12,12,12,12,12,12,12,12,12,12,12,13,13,13,13,13,13,13,13,13,13,13,13,13,13,13,13,13,13,13,13,13,13,13,13,13,14,14,14,14,14,14,14,14,14,14,14,14,14,14,14,14,15,15,15,15,15,15,15,15,15,15,15,16,16,16,16,16,16,16,16,16,16,16,16,17,17,17,17,17,17,17,17,17,17,17,17,17,17,17,17,17,17,17,17,17,17,17,18,18,18,18,18,18,18,18,18,19,19,19,19,19,19,19,19,19,19,19,19,19,20,20,20,20,20,20,20,20,20,20,20,20,20,20,20,20,20,20,20,20,21,21,21,21,21,21,21,21,21,22,22,22,22,22,22,22,22,22,22,22,22,23,23,23,23,23,23,23,23,23,24,24,24,24,24,24,24,24,24,24,24,24,25,25,25,25,25,25,25,25,25,25,25,25,25,25,25,26,26,26,26,26,26,26,26,26,26,26,26,26,27,27,27,27,27,27,27,27,27,28,28,28,28,28,28,28,28,28,28,28,29,29,29,29,30,30,30,30,30,30,30,30,30,30,31,31,31,31,31,31,31,31,32,32,32,32,32,32,32,33,33,33,33,34,34,34,34,34,34,35,35,36,36,36,36,37,37,38,38,39,39,40];
unsucc = [3,4,5,9,10,11,12,13,18,33,37,4,6,7,8,9,10,11,12,13,14,15,16,19,20,21,24,25,29,37,5,6,7,8,14,15,16,18,19,20,21,22,28,29,31,33,6,7,8,9,10,11,12,13,14,15,16,17,19,20,21,24,25,29,33,34,37,9,10,11,12,13,18,21,28,29,33,37,9,10,11,12,13,16,18,21,24,28,29,30,33,34,37,9,10,11,12,13,15,16,18,20,21,23,24,26,27,28,29,30,33,34,37,40,10,11,13,14,15,16,18,19,20,21,22,24,25,28,29,31,33,34,12,13,14,15,16,17,18,19,20,21,22,23,26,27,28,29,31,32,33,35,36,37,38,39,12,13,14,15,16,17,18,19,20,21,22,23,26,27,28,29,31,32,33,35,36,37,38,39,13,14,15,16,18,19,20,21,22,24,25,28,29,30,31,33,34,37,14,15,16,17,18,19,20,21,22,23,24,25,27,28,29,30,31,32,33,34,35,36,37,38,41,15,16,18,20,21,23,24,26,27,28,29,30,33,34,37,40,16,17,18,21,24,28,29,30,33,34,37,17,18,19,20,21,23,26,27,28,29,33,37,18,19,20,21,22,23,24,25,26,27,28,29,30,31,32,33,34,35,36,37,38,40,41,19,20,21,24,25,29,33,34,37,20,21,23,24,26,27,28,29,30,33,34,37,40,21,22,23,24,25,26,27,28,29,30,31,32,33,34,35,36,37,38,39,40,22,23,24,25,26,28,30,33,37,23,24,25,26,27,28,29,30,33,34,37,40,24,25,28,29,30,31,33,34,37,26,27,28,29,31,32,33,35,36,37,38,39,26,27,28,29,30,31,32,33,34,35,36,37,38,39,40,27,28,29,30,31,32,33,34,35,36,37,38,41,28,29,30,31,32,33,34,37,40,29,31,32,33,34,35,36,37,38,39,41,30,33,35,37,31,32,33,34,35,36,37,38,39,41,32,33,34,35,36,37,40,41,33,34,35,37,38,39,40,35,37,38,39,35,36,37,38,39,41,37,40,37,38,39,40,40,41,40,41,40,41,41];

USEFUL_RES = [{},
	{1,2,3,4,5,6,7,8,9,10,11,12,14,15,16,18,19,20,22,25,26,27,28,29,30,32,33,34,35,37},
	{1,2,3,4,5,6,7,8,9,10,11,13,15,16,18,19,20,21,22,25,27,28,29,30,31,32,33,34,35,37,38},
	{1,2,3,5,6,7,8,9,10,11,15,16,17,18,19,20,21,22,23,24,25,27,28,29,30,31,32,33,34,35,36,37,38},
	{1,2,3,4,5,6,7,8,9,10,11,12,13,14,15,16,17,18,19,20,21,22,23,24,25,26,27,28,29,30,31,32,33,34,35,36,37,38},
	{1,2,3,4,5,6,7,8,9,10,11,13,15,16,18,19,20,21,22,25,27,28,29,30,31,32,33,34,35,37,38},
	{1,2,3,4,5,6,7,8,9,10,11,12,13,14,15,16,17,18,19,20,21,22,23,24,25,26,27,28,29,30,31,32,33,34,35,36,37,38},
	{1,2,3,5,6,7,8,9,10,11,15,16,17,18,19,20,21,22,23,24,25,27,28,29,30,31,32,33,34,35,36,37,38},
	{1,2,3,4,5,6,7,8,9,10,11,12,13,14,15,16,17,18,19,20,21,22,23,24,25,26,27,28,29,30,31,32,33,34,35,36,37,38},
	{1,2,3,4,5,6,7,8,9,10,11,12,13,14,15,16,17,18,19,20,21,22,23,24,25,26,27,28,29,30,31,32,33,34,35,36,37,38},
	{1,2,3,4,5,6,7,8,9,10,11,12,13,14,15,16,17,18,19,20,21,22,23,24,25,26,27,28,29,30,31,32,33,34,35,36,37,38},
	{1,2,3,4,5,6,7,8,9,10,11,12,14,15,16,18,19,20,22,25,26,27,28,29,30,32,33,34,35,37},
	{1,2,3,4,5,6,7,8,9,10,11,12,13,14,15,16,17,18,19,20,21,22,23,24,25,26,27,28,29,30,31,32,33,34,35,36,37,38},
	{1,2,3,4,5,6,7,8,9,10,11,12,13,14,15,16,18,19,20,21,22,25,26,27,28,29,30,31,32,33,34,35,37,38},
	{1,2,3,4,5,6,7,8,9,10,11,12,13,14,15,16,17,18,19,20,21,22,23,24,25,26,27,28,29,30,31,32,33,34,35,36,37,38},
	{1,2,3,4,5,6,7,8,9,10,11,12,13,14,15,16,17,18,19,20,21,22,23,24,25,26,27,28,29,30,31,32,33,34,35,36,37,38},
	{1,2,3,4,5,6,7,8,9,10,11,12,13,14,15,16,17,18,19,20,21,22,23,24,25,26,27,28,29,30,31,32,33,34,35,36,37,38},
	{1,2,3,4,5,6,7,8,9,10,11,12,13,14,15,16,18,19,20,21,22,25,26,27,28,29,30,31,32,33,34,35,37,38},
	{1,2,3,4,5,6,7,8,9,10,11,12,13,14,15,16,17,18,19,20,21,22,23,24,25,26,27,28,29,30,31,32,33,34,35,36,37,38},
	{1,2,3,4,5,6,7,8,9,10,11,12,13,14,15,16,17,18,19,20,21,22,23,24,25,26,27,28,29,30,31,32,33,34,35,36,37,38},
	{1,2,3,4,5,6,7,8,9,10,11,12,13,14,15,16,17,18,19,20,21,22,23,24,25,26,27,28,29,30,31,32,33,34,35,36,37,38},
	{1,2,3,4,5,6,7,8,9,10,11,12,13,14,15,16,17,18,19,20,21,22,23,24,25,26,27,28,29,30,31,32,33,34,35,36,37,38},
	{1,2,3,4,5,6,7,8,9,10,11,12,13,14,15,16,18,19,20,21,22,26,27,29,31,32,33,34,35,37,38},
	{1,2,3,5,6,7,8,9,10,11,15,16,17,18,19,20,21,22,23,24,25,27,28,29,30,31,32,33,34,35,36,37,38},
	{1,2,3,4,5,6,7,8,9,10,11,12,13,14,15,16,17,18,19,20,21,22,23,24,25,26,27,28,29,30,31,32,33,34,35,36,37,38},
	{1,2,3,4,5,6,7,8,9,10,13,16,17,18,19,20,21,22,23,24,25,27,28,29,30,31,32,34,35,36,37,38},
	{1,2,3,4,5,6,7,8,9,10,11,12,13,14,15,16,17,18,19,20,21,22,23,24,25,26,27,28,29,30,31,32,33,34,35,36,37,38},
	{1,2,3,4,5,6,7,8,9,10,11,12,14,15,16,18,19,20,22,25,26,27,28,29,30,32,33,34,35,37},
	{1,2,3,4,5,6,7,8,9,10,11,12,13,14,15,16,18,19,20,21,22,26,27,29,31,32,33,34,35,37,38},
	{1,2,3,4,5,6,7,8,9,10,11,12,14,15,16,17,18,19,20,21,22,23,24,25,26,27,28,29,30,31,32,33,34,35,36,37,38},
	{1,2,3,4,5,6,7,8,9,10,11,12,13,14,15,16,18,19,20,21,22,26,27,29,31,32,33,34,35,37,38},
	{1,2,3,4,5,6,7,8,9,10,11,12,13,14,15,16,17,18,19,20,21,22,23,24,25,26,27,28,29,30,31,32,33,34,35,36,37,38},
	{1,2,3,4,5,6,7,8,9,10,11,12,13,14,15,16,17,18,19,20,21,22,23,24,25,26,27,28,29,30,31,32,33,34,35,36,37,38},
	{1,2,3,4,5,6,7,8,9,10,11,13,15,16,17,18,19,20,21,22,23,24,25,27,28,29,30,31,32,33,34,35,36,37,38},
	{1,2,3,4,5,6,7,11,12,14,15,16,17,18,19,20,21,23,24,25,26,28,29,30,31,32,33,34,35,36,37,38},
	{1,2,3,4,5,6,7,11,12,14,15,16,17,18,19,20,21,23,24,25,26,28,29,30,31,32,33,34,35,36,37,38},
	{1,2,3,4,5,6,7,8,9,10,11,12,13,14,15,16,17,18,19,20,21,22,23,24,25,26,27,28,29,30,31,32,33,34,35,36,37,38},
	{1,2,3,4,5,6,7,8,9,10,11,12,13,14,15,16,17,18,19,20,21,22,23,24,25,26,27,28,29,30,31,32,33,34,35,36,37,38},
	{1,2,3,4,5,6,7,8,9,10,11,12,13,14,15,16,18,19,20,21,22,26,27,29,31,32,33,34,35,37,38},
	{1,2,3,4,5,6,7,8,9,10,11,12,13,14,15,16,17,18,19,20,21,22,23,24,25,26,27,28,29,30,31,32,33,34,35,36,37,38},
	{1,2,3,4,5,6,7,8,9,10,11,12,13,14,15,16,17,18,19,20,21,22,23,24,25,26,27,28,29,30,31,32,33,34,35,36,37,38},
	{}];

POTENTIAL_ACT = [{2,3,4,5,6,7,8,9,10,11,12,13,14,15,16,17,18,19,20,21,22,23,24,25,26,27,28,29,30,31,32,33,34,35,36,37,38,39,40,41},
	{2,3,4,5,6,7,8,9,10,11,12,13,14,15,16,17,18,19,20,21,22,23,24,25,26,27,28,29,30,31,32,33,34,35,36,37,38,39,40,41},
	{2,3,4,5,6,7,8,9,10,11,12,13,14,15,16,17,18,19,20,21,22,23,24,25,26,27,28,29,30,31,32,33,34,35,36,37,38,39,40,41},
	{2,3,5,6,7,9,10,11,12,13,14,15,16,17,18,19,20,21,22,23,25,26,27,28,29,30,31,32,33,34,35,36,37,38,39,40,41},
	{2,3,4,5,6,7,8,9,10,11,12,13,14,15,16,17,18,19,20,21,22,23,24,25,26,27,28,29,30,31,32,33,34,35,36,37,38,39,40,41},
	{2,3,4,5,6,7,8,9,10,11,12,13,14,15,16,17,18,19,20,21,22,23,24,25,26,27,28,29,30,31,32,33,34,35,36,37,38,39,40,41},
	{2,3,4,5,6,7,8,9,10,11,12,13,14,15,16,17,18,19,20,21,22,23,24,25,26,27,28,29,30,31,32,33,34,35,36,37,38,39,40,41},
	{2,3,4,5,6,7,8,9,10,11,12,13,14,15,16,17,18,19,20,21,22,23,24,25,26,27,28,29,30,31,32,33,34,37,38,39,40,41},
	{2,3,4,5,6,7,8,9,10,11,12,13,14,15,16,17,18,19,20,21,22,23,24,25,26,27,28,29,30,31,32,33,34,37,38,39,40,41},
	{2,3,4,5,6,7,8,9,10,11,12,13,14,15,16,17,18,19,20,21,22,23,24,25,26,27,28,29,30,31,32,33,34,37,38,39,40,41},
	{2,3,4,5,6,7,8,9,10,11,12,13,14,15,16,17,18,19,20,21,22,23,24,25,27,28,29,30,31,32,33,34,35,36,37,38,39,40,41},
	{2,5,7,9,10,11,12,13,14,15,16,17,18,19,20,21,22,23,25,27,28,29,30,31,32,33,35,36,37,38,39,40,41},
	{3,5,6,7,9,10,11,13,14,15,16,17,18,19,20,21,22,23,25,26,27,29,31,32,33,34,37,38,39,40,41},
	{2,5,7,9,10,11,12,13,14,15,16,17,18,19,20,21,22,23,25,27,28,29,30,31,32,33,35,36,37,38,39,40,41},
	{2,3,4,5,6,7,8,9,10,11,12,13,14,15,16,17,18,19,20,21,22,23,24,25,27,28,29,30,31,32,33,34,35,36,37,38,39,40,41},
	{2,3,4,5,6,7,8,9,10,11,12,13,14,15,16,17,18,19,20,21,22,23,24,25,26,27,28,29,30,31,32,33,34,35,36,37,38,39,40,41},
	{4,5,7,8,9,10,11,13,15,16,17,19,20,21,22,24,25,26,27,30,32,33,34,35,36,37,38,40,41},
	{2,3,4,5,6,7,8,9,10,11,12,13,14,15,16,17,18,19,20,21,22,23,24,25,26,27,28,29,30,31,32,33,34,35,36,37,38,39,40,41},
	{2,3,4,5,6,7,8,9,10,11,12,13,14,15,16,17,18,19,20,21,22,23,24,25,26,27,28,29,30,31,32,33,34,35,36,37,38,39,40,41},
	{2,3,4,5,6,7,8,9,10,11,12,13,14,15,16,17,18,19,20,21,22,23,24,25,26,27,28,29,30,31,32,33,34,35,36,37,38,39,40,41},
	{3,4,5,6,7,8,9,10,11,13,14,15,16,17,18,19,20,21,22,23,24,25,26,27,29,30,31,32,33,34,35,36,37,38,39,40,41},
	{2,3,4,5,6,7,8,9,10,11,12,13,14,15,16,17,18,19,20,21,22,23,24,25,26,27,28,29,30,31,32,33,34,37,38,39,40,41},
	{4,5,7,8,9,10,11,13,15,16,17,19,20,21,22,24,25,26,27,30,32,33,34,35,36,37,38,40,41},
	{4,5,7,8,9,10,11,13,15,16,17,19,20,21,22,24,25,26,27,30,32,33,34,35,36,37,38,40,41},
	{2,3,4,5,6,7,8,9,10,11,12,13,14,15,16,17,18,19,20,21,22,24,25,26,27,28,30,32,33,34,35,36,37,38,40,41},
	{2,5,7,9,10,11,12,13,14,15,16,17,18,19,20,21,22,23,25,27,28,29,30,31,32,33,35,36,37,38,39,40,41},
	{2,3,4,5,6,7,8,9,10,11,12,13,14,15,16,17,18,19,20,21,22,23,24,25,26,27,28,29,30,31,32,33,34,37,38,39,40,41},
	{2,3,4,5,6,7,8,9,10,11,12,13,14,15,16,17,18,19,20,21,22,24,25,26,27,28,30,32,33,34,35,36,37,38,40,41},
	{2,3,4,5,6,7,8,9,10,11,12,13,14,15,16,17,18,19,20,21,22,23,24,25,26,27,28,29,30,31,32,33,34,35,36,37,38,39,40,41},
	{2,3,4,5,6,7,8,9,10,11,12,13,14,15,16,17,18,19,20,21,22,24,25,26,27,28,30,32,33,34,35,36,37,38,40,41},
	{3,4,5,6,7,8,9,10,11,13,14,15,16,17,18,19,20,21,22,23,24,25,26,27,29,30,31,32,33,34,35,36,37,38,39,40,41},
	{2,3,4,5,6,7,8,9,10,11,12,13,14,15,16,17,18,19,20,21,22,23,24,25,26,27,28,29,30,31,32,33,34,35,36,37,38,39,40,41},
	{2,3,4,5,6,7,8,9,10,11,12,13,14,15,16,17,18,19,20,21,22,23,24,25,27,28,29,30,31,32,33,34,35,36,37,38,39,40,41},
	{2,3,4,5,6,7,8,9,10,11,12,13,14,15,16,17,18,19,20,21,22,23,24,25,26,27,28,29,30,31,32,33,34,35,36,37,38,39,40,41},
	{2,3,4,5,6,7,8,9,10,11,12,13,14,15,16,17,18,19,20,21,22,23,24,25,26,27,28,29,30,31,32,33,34,35,36,37,38,39,40,41},
	{4,5,7,8,9,10,11,13,15,16,17,19,20,21,22,24,25,26,27,30,32,33,34,35,36,37,38,40,41},
	{2,3,4,5,6,7,8,9,10,11,12,13,14,15,16,17,18,19,20,21,22,23,24,25,26,27,28,29,30,31,32,33,34,35,36,37,38,39,40,41},
	{3,4,5,6,7,8,9,10,11,13,14,15,16,17,18,19,20,21,22,23,24,25,26,27,29,30,31,32,33,34,35,36,37,38,39,40,41}];
